/*********************************************
 * OPL 12.9.0.0 Data
 * Author: cmcai
 * Creation Date: 2020年5月21日 at 下午4:04:08
 *********************************************/
n =5;
c = 
[[3, 8, 2, 10, 3],
 [8, 7, 2, 9, 7],
 [6, 4, 2, 7, 5],
 [8, 4, 2, 3, 5],
 [9, 10, 6, 9, 10]];